(set-option :produce-models true)
(set-option :global-declarations true)
(set-option :produce-unsat-cores true)
(set-option :produce-abducts true)
(set-logic ALL)
(get-info :error-behavior)
(push 1)
(push 1)

(declare-fun y () (_ BitVec 32))
(define-fun x!0 () (_ BitVec 64) (concat (ite (= ((_ extract 31 31) y) (_ bv1 1)) (_ bv4294967295 32) (_ bv0 32)) y))
(declare-fun x () (_ BitVec 32))
(define-fun x!1 () (_ BitVec 64) (concat (ite (= ((_ extract 31 31) x) (_ bv1 1)) (_ bv4294967295 32) (_ bv0 32)) x))
(define-fun x!2 () (_ BitVec 64) (bvmul x!0 x!1))
(define-fun x!3 () (_ BitVec 32) (bvmul x y))
(define-fun x!4 () (_ BitVec 64) (concat (ite (= ((_ extract 31 31) x!3) (_ bv1 1)) (_ bv4294967295 32) (_ bv0 32)) x!3))
(define-fun x!5 () Bool (= x!2 x!4))
(define-fun x!6 () Bool (not x!5))
(push 2)
(assert (! x!6 :named x!7))
(check-sat)
(get-value (x))
(get-value (y))
(pop 2)
(get-abduct abd x!5)
(get-abduct-next)
(get-abduct-next)
(pop 1)
(exit)